(define-fun
  h3
  ((x Int) (y Int)) Int y)
(define-fun
  g2
  ((x Int)) Int x)
(define-fun
  g1
  ((x Int) (y Int)) Int (+ y y))
(define-fun
  g0
  ((x Int)) Int x)
(define-fun
  f3
  ((x Int)) Int
  (+
    (- (+ x x) (div (+ (div x (+ 1 (+ 2 2))) x) (+ 1 (+ 2 (+ 2 2)))))
    x))
(define-fun-rec
  u3
  ((x Int) (y Int)) Int (ite (<= x 0) y (f3 (u3 (- x 1) y))))
(define-fun
  v3
  ((x Int) (y Int)) Int (u3 1 y))
(define-fun
  f2
  ((x Int) (y Int)) Int (+ (v3 x y) x))
(define-fun-rec
  u2
  ((x Int) (y Int)) Int (ite (<= x 0) y (f2 (u2 (- x 1) y) x)))
(define-fun
  v2
  ((x Int)) Int (u2 x 1))
(define-fun
  f1
  ((x Int) (y Int)) Int (+ (div (* y y) (+ (+ 2 x) y)) y))
(define-fun-rec
  u1
  ((x Int) (y Int)) Int (ite (<= x 0) y (f1 (u1 (- x 1) y) x)))
(define-fun
  v1
  ((x Int) (y Int)) Int (u1 (g1 x y) 0))
(define-fun
  f0
  ((x Int) (y Int)) Int (+ (v1 x y) x))
(define-fun-rec
  u0
  ((x Int) (y Int)) Int (ite (<= x 0) y (f0 (u0 (- x 1) y) x)))
(define-fun
  v0
  ((x Int)) Int (u0 x 1))
(define-fun
  small
  ((x Int)) Int (+ (v0 x) x))
(assert-not
  (forall ((c Int)) (or (not (>= c 0)) (= (small c) (v2 c)))))
